#SOLVERNAME# PAJ_Gurobi_MOSEK_msd_scale_subponly_noinit
#SOLVER# Pajarito.PajaritoSolver(3, 3600.0, 1.0e-5, true, Gurobi.GurobiSolver(nothing, Any[(:OutputFlag, 1), (:Threads, 8), (:IntFeasTol, 1.0e-9), (:FeasibilityTol, 1.0e-6), (:MIPGap, 1.0e-5)]), Pajarito.UnsetSolver(), 0, false, true, Mosek.MosekSolver(Any[(:LOG, 0), (:NUM_THREADS, 8), (:MSK_DPAR_INTPNT_CO_TOL_REL_GAP, 1.0e-10), (:MSK_DPAR_INTPNT_CO_TOL_PFEAS, 1.0e-10), (:MSK_DPAR_INTPNT_CO_TOL_DFEAS, 1.0e-10), (:MSK_DPAR_INTPNT_CO_TOL_NEAR_REL, 1000.0)]), true, true, false, false, true, false, false, true, false, false, false, false, false, false, true, 10.0, true, false, false, false, 1.0e-12, 1.0e-6, false, "")
#INSTANCE# ck_n75_m10_o5_5.cbf.gz
#TIMELIMIT# 3600.0

Problem dimensions:
       variables |    1606
     constraints |    1605
   nonzeros in A |    2629

Cones summary:
Cone             | Count   | Min dim.  | Max dim. 
    Rotated S.O. |      10 |        77 |        77

Variable types:
      continuous |    1531
         integer |      75

Transforming data...               0.00s

Creating conic subproblem...       0.03s

Building MIP model...              0.00s

Solving conic relaxation...        0.02s
 - Relaxation status    =        Optimal
 - Relaxation bound     =  -31692.246146
Academic license - for non-commercial use only
Warning for adding constraints: zero or small (< 1e-13) coefficients, ignored
Optimize a model with 1772 rows, 2365 columns and 4090 nonzeros
Variable types: 2290 continuous, 75 integer (0 binary)
Coefficient statistics:
  Matrix range     [1e-13, 5e+02]
  Objective range  [4e+01, 1e+03]
  Bounds range     [0e+00, 0e+00]
  RHS range        [1e+00, 9e+02]
Warning: Model contains large matrix coefficient range
         Consider reformulating model or setting NumericFocus parameter
         to avoid numerical issues.
Found heuristic solution: objective -5578.000000
Presolve removed 1625 rows and 1520 columns
Presolve time: 0.00s
Presolved: 147 rows, 845 columns, 1380 nonzeros
Variable types: 770 continuous, 75 integer (75 binary)

Root relaxation: objective -3.161223e+04, 174 iterations, 0.00 seconds

    Nodes    |    Current Node    |     Objective Bounds      |     Work
 Expl Unexpl |  Obj  Depth IntInf | Incumbent    BestBd   Gap | It/Node Time

     0     0 -31612.225    0   22 -5578.0000 -31612.225   467%     -    0s
H    0     0                    -26324.00000 -31612.225  20.1%     -    0s
H    0     0                    -27577.00000 -31612.225  14.6%     -    0s
     0     0 -31301.374    0   27 -27577.000 -31301.374  13.5%     -    0s
     0     0 -31211.964    0   27 -27577.000 -31211.964  13.2%     -    0s
     0     0 -31186.159    0   26 -27577.000 -31186.159  13.1%     -    0s
     0     0 -31184.157    0   27 -27577.000 -31184.157  13.1%     -    0s
     0     0 -31184.154    0   27 -27577.000 -31184.154  13.1%     -    0s
     0     0 -30928.972    0   34 -27577.000 -30928.972  12.2%     -    0s
     0     0 -30823.729    0   33 -27577.000 -30823.729  11.8%     -    0s
     0     0 -30785.025    0   33 -27577.000 -30785.025  11.6%     -    0s
     0     0 -30780.780    0   34 -27577.000 -30780.780  11.6%     -    0s
     0     0 -30780.119    0   34 -27577.000 -30780.119  11.6%     -    0s
     0     0 -30687.750    0   36 -27577.000 -30687.750  11.3%     -    0s
     0     0 -30641.269    0   36 -27577.000 -30641.269  11.1%     -    0s
     0     0 -30634.327    0   35 -27577.000 -30634.327  11.1%     -    0s
     0     0 -30633.560    0   35 -27577.000 -30633.560  11.1%     -    0s
     0     0 -30595.176    0   35 -27577.000 -30595.176  10.9%     -    0s
     0     0 -30589.196    0   34 -27577.000 -30589.196  10.9%     -    0s
     0     0 -30588.210    0   34 -27577.000 -30588.210  10.9%     -    0s
     0     0 -30560.864    0   33 -27577.000 -30560.864  10.8%     -    0s
     0     0 -30558.231    0   34 -27577.000 -30558.231  10.8%     -    0s
     0     0 -30554.552    0   34 -27577.000 -30554.552  10.8%     -    0s
     0     0 -30554.381    0   34 -27577.000 -30554.381  10.8%     -    0s
     0     0 -30544.731    0   36 -27577.000 -30544.731  10.8%     -    0s
     0     2 -30544.725    0   36 -27577.000 -30544.725  10.8%     -    0s
H   33    35                    -27682.00000 -30317.536  9.52%  40.8    0s
H   35    37                    -27727.00000 -30317.536  9.34%  38.9    0s
H   90    87                    -27956.00000 -30317.536  8.45%  30.8    0s
H  105   100                    -28201.00000 -30317.536  7.51%  30.3    0s
H  156   142                    -28341.00000 -30317.536  6.97%  26.0    0s
H  300   226                    -28680.00000 -30239.747  5.44%  22.5    0s
H  353   249                    -28892.00000 -30239.747  4.66%  22.9    0s
H 1008   530                    -28919.00000 -30066.180  3.97%  21.4    0s
H 2288   880                    -28929.00000 -29778.102  2.94%  20.9    1s
H 2474   841                    -29053.00000 -29734.499  2.35%  21.0    1s
H 5310   532                    -29070.00000 -29366.886  1.02%  20.4    1s

Cutting planes:
  Learned: 1
  Gomory: 1
  Cover: 34
  Implied bound: 31
  MIR: 160
  StrongCG: 2
  Inf proof: 2
  Lazy constraints: 345

Explored 6289 nodes (119272 simplex iterations) in 1.73 seconds
Thread count was 8 (of 16 available processors)

Solution count 10: -29070 -29053 -28929 ... -27727

Optimal solution found (tolerance 1.00e-05)
Best objective -2.907000000000e+04, best bound -2.907000000000e+04, gap 0.0000%

Starting MIP-solver-driven algorithm

MIP-solver-driven algorithm summary:
 - Status               =        Optimal
 - Best feasible        =  -2.907000e+04
 - Best bound           =  -2.907000e+04
 - Relative opt. gap    =      0.000e+00
 - Total time (s)       =       1.78e+00

Timers (s):
 - Setup                =   3.20e-02
 -- Transform data      =   7.91e-04
 -- Create conic data   =   2.82e-02
 -- Create MIP data     =   2.97e-03
 - Algorithm            =   1.75e+00
 -- Solve relaxation    =   1.97e-02
 -- Get relaxation cuts =   3.89e-04
 -- MIP solver driving  =   1.73e+00
 -- Solve subproblems   =   1.29e-01
 -- Get subproblem cuts =   3.37e-03
 -- Get separation cuts =   0.00e+00

Counters:
 - Lazy callbacks       =    24
 -- Integer repeats     =     1
 -- Conic subproblems   =    24
 --- Infeasible         =    10
 --- Optimal            =    14
 --- Suboptimal         =     0
 --- UserLimit          =     0
 --- ConicFailure       =     0
 --- Other status       =     0
 -- Feasible solutions  =    14
 --- From subproblems   =    14
 --- In lazy callback   =     0
 - Heuristic callbacks  =  3817
 -- Solutions passed    =    12

Solution returned by conic solver

Rounds of full separation/subproblem cuts, and count of cuts added:
Cone             | Subp.  | Sep.   | Total  | Relax. | Viol. 
    Second order |    110 |      0 |    345 |    147 |    345

24 numerically unstable disaggregated SOC cuts

Distance to feasibility (negative indicates strict feasibility):
Cone             | Variable  | Constraint
          Linear |  0.00e+00 |  5.68e-14
    Rotated S.O. | -9.27e-01 |        NA

Distance to integrality of integer/binary variables:
         integer |  2.00e-15

#STATUS# Optimal
#OBJVAL# 29070.0
#OBJBOUND# 29070.0
#NODECOUNT# 6289
#TIMESOLVER# 1.7827057838439941
#TIMEALL# 1.827759027481079
#SOLUTION# [-0.0,1.0,1.0,1.0,1.0,1.0,1.0,-0.0,-0.0,0.0,1.0,-0.0,1.0,-0.0,0.0,1.0,1.0,1.0,-0.0,-0.0,1.0,1.0,1.0,1.0,1.0,-0.0,-0.0,-0.0,1.0,1.0,1.000000000000002,1.0,1.0,-0.0,1.0,1.0,-0.0,-0.0,-0.0,0.0,-0.0,1.0,-0.0,-0.0,1.0,1.0,1.0,1.0,1.0,0.9999999999999989,-0.0,1.0,1.0,0.0,0.0,1.0,1.0,0.0,1.0,-0.0,-0.0,1.0,1.0,1.0000000000000002,1.0,1.0,1.0,1.0,0.9999999999999994,-0.0,-0.0,1.0,1.0,1.0,1.0,0.0,0.0,41.0,12.0,0.0,0.0,0.0,136.0,0.0,0.0,0.0,0.0,0.0,0.0,0.0,0.0,0.0,0.0,0.0,0.0,0.0,0.0,0.0,0.0,0.0,175.0,0.0,0.0,0.0,0.0,0.0,0.0,0.0,2.0,0.0,0.0,0.0,0.0,0.0,0.0,0.0,0.0,0.0,0.0,0.0,0.0,0.0,0.0,0.0,196.0,0.0,0.0,0.0,4.0,0.0,0.0,0.0,0.0,0.0,0.0,0.0,0.0,7.0,0.0,0.0,0.0,0.0,0.0,313.0,0.0,0.0,0.0,0.0,0.0,0.0,100.0,449.1263257427802,0.0,154.0,103.0,0.0,0.0,0.0,66.0,0.0,0.0,0.0,0.0,0.0,0.0,0.0,0.0,0.0,0.0,0.0,0.0,0.0,0.0,0.0,0.0,0.0,0.0,0.0,0.0,0.0,0.0,0.0,0.0,0.0,0.0,0.0,0.0,0.0,0.0,0.0,0.0,0.0,0.0,0.0,0.0,0.0,63.0,0.0,0.0,160.0,0.0,0.0,0.0,0.0,0.0,0.0,0.0,0.0,0.0,0.0,0.0,0.0,0.0,0.0,0.0,0.0,0.0,0.0,0.0,0.0,42.99999999999998,0.0,0.0,0.0,0.0,113.0,0.0,289.93512840266874,0.0,0.0,0.0,0.0,0.0,0.0,0.0,0.0,0.0,0.0,0.0,0.0,90.0,0.0,0.0,0.0,0.0,0.0,0.0,0.0,0.0,107.0,0.0,0.0,0.0,0.0,0.0,0.0,0.0,0.0,0.0,0.0,0.0,0.0,0.0,0.0,0.0,0.0,0.0,0.0,0.0,0.0,0.0,0.0,0.0,0.0,0.0,63.0,0.0,0.0,0.0,0.0,0.0,0.0,0.0,0.0,0.0,0.0,0.0,0.0,0.0,0.0,49.0,166.00000000000003,0.0,0.0,0.0,0.0,0.0,0.0,0.0,0.0,0.0,0.0,0.0,238.40690277503344,0.0,0.0,0.0,0.0,0.0,0.0,0.0,0.0,0.0,0.0,0.0,0.0,0.0,0.0,0.0,0.0,0.0,0.0,0.0,0.0,0.0,0.0,0.0,0.0,0.0,0.0,0.0,0.0,0.0,0.0,0.0,0.0,0.0,0.0,0.0,0.0,0.0,0.0,0.0,0.0,0.0,0.0,0.0,0.0,0.0,0.0,0.0,0.0,0.0,43.99999999999995,0.0,0.0,0.0,0.0,0.0,155.0,0.0,0.0,0.0,0.0,0.0,0.0,0.0,76.00000000000001,0.0,0.0,0.0,2.0,0.0,0.0,0.0,0.0,330.0,43.0,0.0,386.4084701497648,0.0,0.0,0.0,0.0,7.0,0.0,0.0,0.0,0.0,0.0,0.0,0.0,0.0,0.0,0.0,0.0,0.0,0.0,0.0,0.0,77.0,0.0,0.0,0.0,0.0,0.0,0.0,0.0,0.0,0.0,44.000000000000085,11.0,0.0,0.0,0.0,0.0,0.0,0.0,0.0,0.0,0.0,0.0,0.0,0.0,0.0,0.0,0.0,28.0,0.0,220.99999999999974,0.0,0.0,53.0,0.0,0.0,0.0,0.0,0.0,281.0,0.0,0.0,0.0,0.0,0.0,134.0,0.0,0.0,0.0,0.0,0.0,0.0,0.0,0.0,0.0,0.0,411.0010707591447,0.0,0.0,0.0,0.0,133.0,0.0,0.0,0.0,0.0,0.0,0.0,0.0,0.0,0.0,0.0,47.0,0.0,0.0,0.0,0.0,0.0,0.0,0.0,0.0,0.0,0.0,0.0,0.0,0.0,0.0,0.0,0.0,259.0,0.0,88.0,83.0,0.0,0.0,0.0,0.0,0.0,0.0,0.0,0.0,0.0,12.0,0.0,101.0,0.0,2.9999999999999964,0.0,74.0,0.0,0.0,0.0,0.0,0.0,0.0,0.0,0.0,0.0,0.0,0.0,0.0,158.0,0.0,0.0,0.0,146.99999999999991,0.0,0.0,0.0,0.0,0.0,0.0,406.75739832231994,0.0,0.0,0.0,0.0,0.0,0.0,0.0,0.0,0.0,0.0,5.0,0.0,166.0,0.0,0.0,0.0,60.0,0.0,0.0,0.0,0.0,0.0,0.0,0.0,0.0,0.0,0.0,0.0,0.0,0.0,0.0,0.0,0.0,0.0,0.0,0.0,0.0,0.0,0.0,0.0,0.0,0.0,0.0,0.0,0.0,0.0,0.0,0.0,60.0,0.0,0.0,0.0,0.0,0.0,0.0,0.0,0.0,0.0,0.0,0.0,0.0,0.0,0.0,0.0,0.0,0.0,0.0,0.0,23.999999999999986,0.0,0.0,0.0,0.0,0.0,0.0,231.26519181625227,0.0,0.0,0.0,0.0,2.0,0.0,0.0,0.0,0.0,0.0,0.0,0.0,0.0,0.0,0.0,75.0,0.0,0.0,0.0,0.0,0.0,0.0,0.0,0.0,0.0,0.0,0.0,0.0,0.0,0.0,0.0,0.0,0.0,0.0,0.0,0.0,0.0,0.0,0.0,0.0,0.0,0.0,0.0,0.0,0.0,0.0,0.0,0.0,85.0,0.0,0.0,57.0,0.0,0.0,0.0,0.0,0.0,0.0,87.0,0.0,0.0,0.0,0.0,0.0,0.0,0.0,0.0,0.0,0.0,0.0,0.0,0.0,0.0,0.0,0.0,156.18209260147,0.0,0.0,0.0,0.0,0.0,0.0,0.0,0.0,0.0,0.0,0.0,0.0,0.0,0.0,0.0,0.0,0.0,1.0,0.0,0.0,0.0,2.0,0.0,0.0,0.0,0.0,0.0,0.0,0.0,0.0,0.0,0.0,0.0,0.0,0.0,0.0,0.0,0.0,0.0,0.0,0.0,0.0,0.0,0.0,0.0,246.0,0.0,17.0,0.0,160.99999999999983,0.0,42.0,0.0,0.0,0.0,0.0,6.0,0.0,0.0,0.0,0.0,0.0,0.0,0.0,0.0,0.0,0.0,0.0,0.0,0.0,0.0,0.0,0.0,8.0,0.0,298.34443429106665,0.0,0.0,0.0,0.0,0.0,0.0,0.0,0.0,0.0,0.0,0.0,0.0,0.0,0.0,0.0,0.0,0.0,0.0,0.0,0.0,0.0,0.0,0.0,0.0,0.0,0.0,0.0,0.0,0.0,0.0,0.0,0.0,0.0,0.0,0.0,0.0,0.0,0.0,0.0,0.0,0.0,0.0,0.0,0.0,0.0,0.0,0.0,0.0,0.0,0.0,0.0,0.0,8.0,0.0,0.0,0.0,0.0,0.0,0.0,0.0,0.0,0.0,0.0,0.0,0.0,0.0,0.0,0.0,0.0,0.0,0.0,0.0,0.0,128.0,0.0,129.6594357568727,635.1605410842362,317.58027054211817,0.0,57.98275605729689,16.97056274847714,0.0,0.0,0.0,192.33304448274092,0.0,0.0,0.0,0.0,0.0,0.0,0.0,0.0,0.0,0.0,0.0,0.0,0.0,0.0,0.0,0.0,0.0,247.48737341529161,0.0,0.0,0.0,0.0,0.0,0.0,0.0,2.82842712474619,0.0,0.0,0.0,0.0,0.0,0.0,0.0,0.0,0.0,0.0,0.0,0.0,0.0,0.0,0.0,277.1858582251266,0.0,0.0,0.0,5.65685424949238,0.0,0.0,0.0,0.0,0.0,0.0,0.0,0.0,9.899494936611664,0.0,0.0,0.0,0.0,0.0,442.6488450227787,0.0,0.0,0.0,0.0,0.0,0.0,141.42135623730948,410.03019079543884,205.01509539771948,0.0,217.7888886054566,145.66399692442877,0.0,0.0,0.0,93.33809511662426,0.0,0.0,0.0,0.0,0.0,0.0,0.0,0.0,0.0,0.0,0.0,0.0,0.0,0.0,0.0,0.0,0.0,0.0,0.0,0.0,0.0,0.0,0.0,0.0,0.0,0.0,0.0,0.0,0.0,0.0,0.0,0.0,0.0,0.0,0.0,0.0,0.0,89.09545442950498,0.0,0.0,226.2741699796952,0.0,0.0,0.0,0.0,0.0,0.0,0.0,0.0,0.0,0.0,0.0,0.0,0.0,0.0,0.0,0.0,0.0,0.0,0.0,0.0,60.81118318204305,0.0,0.0,0.0,0.0,159.80613254815972,0.0,337.1582752678161,168.5791376339081,0.0,0.0,0.0,0.0,0.0,0.0,0.0,0.0,0.0,0.0,0.0,0.0,127.27922061357854,0.0,0.0,0.0,0.0,0.0,0.0,0.0,0.0,151.32085117392117,0.0,0.0,0.0,0.0,0.0,0.0,0.0,0.0,0.0,0.0,0.0,0.0,0.0,0.0,0.0,0.0,0.0,0.0,0.0,0.0,0.0,0.0,0.0,0.0,0.0,89.09545442950498,0.0,0.0,0.0,0.0,0.0,0.0,0.0,0.0,0.0,0.0,0.0,0.0,0.0,0.0,69.29646455628165,234.7594513539338,0.0,0.0,0.0,0.0,0.0,0.0,0.0,0.0,0.0,0.0,0.0,546.4640991016366,273.2320495508184,0.0,0.0,0.0,0.0,0.0,0.0,0.0,0.0,0.0,0.0,0.0,0.0,0.0,0.0,0.0,0.0,0.0,0.0,0.0,0.0,0.0,0.0,0.0,0.0,0.0,0.0,0.0,0.0,0.0,0.0,0.0,0.0,0.0,0.0,0.0,0.0,0.0,0.0,0.0,0.0,0.0,0.0,0.0,0.0,0.0,0.0,0.0,0.0,0.0,62.22539674441611,0.0,0.0,0.0,0.0,0.0,219.2031021678297,0.0,0.0,0.0,0.0,0.0,0.0,0.0,107.48023074035524,0.0,0.0,0.0,2.82842712474619,0.0,0.0,0.0,0.0,466.6904755831213,60.81118318204308,0.0,581.2432884174465,290.6216442087233,0.0,0.0,0.0,0.0,9.899494936611664,0.0,0.0,0.0,0.0,0.0,0.0,0.0,0.0,0.0,0.0,0.0,0.0,0.0,0.0,0.0,108.8944443027283,0.0,0.0,0.0,0.0,0.0,0.0,0.0,0.0,0.0,62.225396744416294,15.556349186104043,0.0,0.0,0.0,0.0,0.0,0.0,0.0,0.0,0.0,0.0,0.0,0.0,0.0,0.0,0.0,39.597979746446654,0.0,312.54119728445363,0.0,0.0,74.95331880577403,0.0,0.0,0.0,0.0,0.0,397.3940110268397,0.0,0.0,0.0,0.0,0.0,189.50461735799473,0.0,0.0,0.0,0.0,0.0,0.0,0.0,0.0,0.0,0.0,575.24182930302,287.6209146515101,0.0,0.0,0.0,0.0,188.09040379562163,0.0,0.0,0.0,0.0,0.0,0.0,0.0,0.0,0.0,0.0,66.46803743153546,0.0,0.0,0.0,0.0,0.0,0.0,0.0,0.0,0.0,0.0,0.0,0.0,0.0,0.0,0.0,0.0,366.28131265463156,0.0,124.45079348883235,117.37972567696688,0.0,0.0,0.0,0.0,0.0,0.0,0.0,0.0,0.0,16.97056274847714,0.0,142.8355697996826,0.0,4.242640687119279,0.0,104.65180361560903,0.0,0.0,0.0,0.0,0.0,0.0,0.0,0.0,0.0,0.0,0.0,0.0,223.445742854949,0.0,0.0,0.0,207.88939366884483,0.0,0.0,0.0,0.0,0.0,0.0,327.05837077135925,163.52918538567965,0.0,0.0,0.0,0.0,0.0,0.0,0.0,0.0,0.0,0.0,7.071067811865475,0.0,234.75945135393377,0.0,0.0,0.0,84.85281374238569,0.0,0.0,0.0,0.0,0.0,0.0,0.0,0.0,0.0,0.0,0.0,0.0,0.0,0.0,0.0,0.0,0.0,0.0,0.0,0.0,0.0,0.0,0.0,0.0,0.0,0.0,0.0,0.0,0.0,0.0,0.0,84.85281374238569,0.0,0.0,0.0,0.0,0.0,0.0,0.0,0.0,0.0,0.0,0.0,0.0,0.0,0.0,0.0,0.0,0.0,0.0,0.0,33.94112549695426,0.0,0.0,0.0,0.0,0.0,0.0,220.87483355680948,110.43741677840477,0.0,0.0,0.0,0.0,2.82842712474619,0.0,0.0,0.0,0.0,0.0,0.0,0.0,0.0,0.0,0.0,106.06601717798212,0.0,0.0,0.0,0.0,0.0,0.0,0.0,0.0,0.0,0.0,0.0,0.0,0.0,0.0,0.0,0.0,0.0,0.0,0.0,0.0,0.0,0.0,0.0,0.0,0.0,0.0,0.0,0.0,0.0,0.0,0.0,0.0,120.20815280171307,0.0,0.0,80.61017305526642,0.0,0.0,0.0,0.0,0.0,0.0,123.03657992645925,0.0,0.0,0.0,0.0,0.0,0.0,0.0,0.0,0.0,0.0,0.0,0.0,0.0,0.0,0.0,0.0,421.9227452329551,210.9613726164776,0.0,0.0,0.0,0.0,0.0,0.0,0.0,0.0,0.0,0.0,0.0,0.0,0.0,0.0,0.0,0.0,0.0,1.414213562373095,0.0,0.0,0.0,2.82842712474619,0.0,0.0,0.0,0.0,0.0,0.0,0.0,0.0,0.0,0.0,0.0,0.0,0.0,0.0,0.0,0.0,0.0,0.0,0.0,0.0,0.0,0.0,0.0,347.89653634378135,0.0,24.041630560342615,0.0,227.68838354206804,0.0,59.39696961966999,0.0,0.0,0.0,0.0,8.48528137423857,0.0,0.0,0.0,0.0,0.0,0.0,0.0,0.0,0.0,0.0,0.0,0.0,0.0,0.0,0.0,0.0,11.31370849898476,0.0,183.3661325370124,91.68306626850621,0.0,0.0,0.0,0.0,0.0,0.0,0.0,0.0,0.0,0.0,0.0,0.0,0.0,0.0,0.0,0.0,0.0,0.0,0.0,0.0,0.0,0.0,0.0,0.0,0.0,0.0,0.0,0.0,0.0,0.0,0.0,0.0,0.0,0.0,0.0,0.0,0.0,0.0,0.0,0.0,0.0,0.0,0.0,0.0,0.0,0.0,0.0,0.0,0.0,0.0,0.0,0.0,11.31370849898476,0.0,0.0,0.0,0.0,0.0,0.0,0.0,0.0,0.0,0.0,0.0,0.0,0.0,0.0,0.0,0.0,0.0,0.0,0.0,0.0,181.01933598375615,0.0]
